<number of tasks>
50

<cycle time>
1000

<order strength>
0.198


<task times>
1 243
2 99
3 59
4 172
5 41
6 155
7 204
8 160
9 136
10 182
11 93
12 190
13 102
14 92
15 159
16 84
17 86
18 181
19 120
20 45
21 41
22 324
23 26
24 43
25 136
26 159
27 106
28 131
29 21
30 57
31 63
32 150
33 112
34 26
35 27
36 233
37 112
38 288
39 44
40 91
41 123
42 235
43 78
44 136
45 157
46 26
47 35
48 121
49 177
50 49

<precedence relations>
1,11
1,14
2,23
3,10
4,8
5,9
6,7
6,12
6,13
7,15
7,18
7,21
7,23
8,24
9,19
9,20
11,17
11,22
12,23
14,16
17,28
17,38
18,24
18,26
19,27
19,29
23,25
23,41
24,31
24,32
26,32
29,30
29,44
30,34
31,33
31,35
31,36
32,33
32,37
33,41
33,45
34,38
34,45
36,40
36,44
37,39
37,42
37,43
38,46
39,49
40,50
41,47
42,47
42,48

<end>
